NAME: mst76.output.tour
COMMENT : Tour for mst76.tsp (Length 688)
TYPE : TOUR
DIMENSION : 76
TOUR SECTION
1
73
62
28
74
30
2
48
47
21
36
69
29
45
27
52
34
46
8
35
7
53
14
59
11
65
38
10
58
72
39
9
32
44
3
50
18
25
55
31
66
19
67
76
75
68
6
51
17
40
12
4
26
13
54
5
37
20
70
60
71
15
57
61
22
33
63
16
49
24
23
56
43
41
42
64
-1
EOF